3 32 1 10
1 4 7 5 14 17 9 16 6 3 19 12 15 8 20 4 7 15 4 18 20 10 2 8 16 5 19 18 15 9 12 8 
2.95 1.2 2.36 5.51 0.54 4.56 3.03 3.81 4.02 4.03 1.99 7.17 7.76 3.15 7.99 7.7 2.32 5.28 4.8 1.67 7.06 6.14 4.67 3.73 2.81 3.1 6.77 3.52 4.23 3.69 4.95 7.46 
4 4 4 4 4 4 4 4 4 4 4 4 4 4 4 4 4 4 4 4 4 4 4 4 4 4 4 4 4 4 4 4 
6.06 3.68 2.31 2.08 5.49 7.09 2.13 6.28 5.22 4.75 2.05 3.69 6.37 5.56 2.78 7.19 7.68 1.68 1.39 6.19 5.71 4.89 6.84 4.44 6.97 6.89 4.16 7.97 4.39 4.88 2.35 0.19 
1 1 1 1 1 1 1 1 1 1 1 1 1 1 1 1 1 1 1 1 1 1 1 1 1 1 1 1 1 1 1 1 
1 1 1 1 1 1 1 1 1 1 1 1 1 1 1 1 1 1 1 1 1 1 1 1 1 1 1 1 1 1 1 1 
1 1 1 1 1 1 1 1 1 1 1 1 1 1 1 1 1 1 1 1 1 1 1 1 1 1 1 1 1 1 1 1 
0.01 0.01 0.01 0.01 0.01 0.01 0.01 0.01 0.01 0.01 0.01 0.01 0.01 0.01 0.01 0.01 0.01 0.01 0.01 0.01 0.01 0.01 0.01 0.01 0.01 0.01 0.01 0.01 0.01 0.01 0.01 0.01 
0.02 0.02 0.02 0.02 0.02 0.02 0.02 0.02 0.02 0.02 0.02 0.02 0.02 0.02 0.02 0.02 0.02 0.02 0.02 0.02 0.02 0.02 0.02 0.02 0.02 0.02 0.02 0.02 0.02 0.02 0.02 0.02 
1 1 1 1 1 1 1 1 1 1 1 1 1 1 1 1 1 1 1 1 1 1 1 1 1 1 1 1 1 1 1 1 
